    neighbor 0.01 bin
    neigh_modify once yes
    boundary p p p  
    units metal  
    atom_style charge
    #atom_style atomic
    atom_modify map array 

    ### Declare the box
    region box prism 0 1 0 1 0 1 0 0 0 units lattice  
    create_box 2 box  
Created triclinic box = (0 0 0) to (1 1 1) with tilt (0 0 0)
  1 by 1 by 1 MPI processor grid
 
    ### Create atom type 1 and 2 in the box
    create_atoms 1 random 32 1919191 NULL # Positions don't matter... just declare the memory
Created 32 atoms
    create_atoms 2 random 32 1919191 NULL # Positions don't matter... just declare the memory
Created 32 atoms
    mass 1 24.305 #Mg
    mass 2 16 #O
    compute P all pe  
    compute S all pressure thermo_temp  



    #pair_style hybrid/overlay morse 2.5 coul/dsf 0.25 10
    #set type 1 charge 0.630600 
    #set type 2 charge -0.630600 
    #pair_coeff * * coul/dsf
    #pair_coeff 1 1  morse   1 1 1
    #pair_coeff 2 2  morse   1 1 1
    #pair_coeff 1 2  morse   0 0.5 2.120500

    pair_style coul/dsf 0.25 10
    set type 1 charge 0.630600 
  32 settings made for charge
    set type 2 charge -0.630600 
  32 settings made for charge
    pair_coeff * * coul/dsf
ERROR: Incorrect args for pair coefficients (../pair_coul_dsf.cpp:184)
