  diamond Ge:
  5.66
  1.0 0.0 0.0
  0.0 1.0 0.0
  0.0 0.0 1.0
    8
  direct
  0.25 0.25 0.25
  0.75 0.75 0.25
  0.75 0.25 0.75
  0.25 0.75 0.75
  0.00 0.00 0.00
  0.50 0.50 0.00
  0.50 0.00 0.50
  0.00 0.50 0.50
