K-Points
 0
Monkhorst Pack
 19 19 19
 0  0  0
